<number of tasks>
50

<cycle time>
1000

<order strength>
0.196


<task times>
1 29
2 61
3 194
4 83
5 166
6 105
7 25
8 32
9 109
10 52
11 199
12 80
13 26
14 94
15 105
16 21
17 98
18 34
19 155
20 21
21 151
22 178
23 114
24 204
25 167
26 105
27 255
28 149
29 120
30 150
31 164
32 36
33 154
34 69
35 251
36 30
37 37
38 251
39 26
40 306
41 248
42 32
43 155
44 70
45 136
46 45
47 161
48 121
49 207
50 127

<precedence relations>
1,8
2,9
3,26
4,10
6,7
6,10
6,11
6,12
6,13
7,36
8,17
9,18
10,14
10,20
10,21
12,15
12,22
13,16
13,19
13,22
14,36
15,36
16,23
18,26
20,24
20,25
21,39
21,40
23,27
24,50
25,28
25,30
26,29
27,31
28,32
28,33
29,34
30,35
31,36
32,37
33,38
33,41
34,40
35,39
36,42
36,43
36,44
36,45
37,47
38,46
39,48
39,49
41,50

<end>
